c This file was generated by genrmf.
c The parameters are: a: 4 b: 4 c1: 0 c2: 500 cost: 100 demand: 1000 seed: 3141592
p max      64        240
n       1        578
n      64       -578
a       1      28          0        439         99
a       1       2          0       8000         48
a       1       5          0       8000         74
a       2      25          0        194         69
a       2       3          0       8000         14
a       2       1          0       8000         58
a       2       6          0       8000         87
a       3      29          0        273         59
a       3       4          0       8000         29
a       3       2          0       8000         57
a       3       7          0       8000          3
a       4      23          0        352         34
a       4       3          0       8000         76
a       4       8          0       8000         44
a       5      26          0        322         77
a       5       6          0       8000         99
a       5       9          0       8000         41
a       5       1          0       8000         75
a       6      22          0        128         11
a       6       7          0       8000         81
a       6       5          0       8000         95
a       6      10          0       8000         25
a       6       2          0       8000         62
a       7      31          0        470         88
a       7       8          0       8000         13
a       7       6          0       8000         40
a       7      11          0       8000         80
a       7       3          0       8000         45
a       8      32          0        271         16
a       8       7          0       8000         19
a       8      12          0       8000          7
a       8       4          0       8000         11
a       9      19          0        193         31
a       9      10          0       8000         64
a       9      13          0       8000         93
a       9       5          0       8000         74
a      10      27          0        366         66
a      10      11          0       8000         61
a      10       9          0       8000         80
a      10      14          0       8000         58
a      10       6          0       8000         72
a      11      24          0        228         86
a      11      12          0       8000         72
a      11      10          0       8000         38
a      11      15          0       8000         54
a      11       7          0       8000         14
a      12      17          0        484         83
a      12      11          0       8000         31
a      12      16          0       8000         67
a      12       8          0       8000         23
a      13      18          0        228         38
a      13      14          0       8000         56
a      13       9          0       8000         59
a      14      21          0        110          9
a      14      15          0       8000         88
a      14      13          0       8000         24
a      14      10          0       8000         49
a      15      30          0        177         20
a      15      16          0       8000         14
a      15      14          0       8000          3
a      15      11          0       8000         28
a      16      20          0        307         61
a      16      15          0       8000         72
a      16      12          0       8000         76
a      17      41          0        166         22
a      17      18          0       8000         46
a      17      21          0       8000         90
a      18      38          0        106          0
a      18      19          0       8000          4
a      18      17          0       8000         72
a      18      22          0       8000         29
a      19      42          0         86         86
a      19      20          0       8000         89
a      19      18          0       8000         39
a      19      23          0       8000         85
a      20      40          0        415         51
a      20      19          0       8000         90
a      20      24          0       8000         60
a      21      46          0         30         50
a      21      22          0       8000         38
a      21      25          0       8000         31
a      21      17          0       8000         48
a      22      33          0        192         12
a      22      23          0       8000         44
a      22      21          0       8000         36
a      22      26          0       8000         93
a      22      18          0       8000         92
a      23      43          0         75         17
a      23      24          0       8000         38
a      23      22          0       8000         26
a      23      27          0       8000         55
a      23      19          0       8000         78
a      24      44          0        186         16
a      24      23          0       8000         23
a      24      28          0       8000         65
a      24      20          0       8000         76
a      25      37          0        365         65
a      25      26          0       8000         95
a      25      29          0       8000         48
a      25      21          0       8000         95
a      26      47          0         51         61
a      26      27          0       8000         20
a      26      25          0       8000          3
a      26      30          0       8000         53
a      26      22          0       8000         41
a      27      36          0         49         39
a      27      28          0       8000         76
a      27      26          0       8000         90
a      27      31          0       8000         82
a      27      23          0       8000         64
a      28      34          0         89         95
a      28      27          0       8000         43
a      28      32          0       8000         67
a      28      24          0       8000         56
a      29      39          0        251         23
a      29      30          0       8000         31
a      29      25          0       8000         45
a      30      48          0        346         91
a      30      31          0       8000         31
a      30      29          0       8000          2
a      30      26          0       8000         29
a      31      35          0        227         84
a      31      32          0       8000         63
a      31      30          0       8000         47
a      31      27          0       8000         42
a      32      45          0         40         23
a      32      31          0       8000          4
a      32      28          0       8000         92
a      33      64          0        221         17
a      33      34          0       8000        100
a      33      37          0       8000         64
a      34      58          0        350         80
a      34      35          0       8000         82
a      34      33          0       8000          4
a      34      38          0       8000         99
a      35      57          0        263        100
a      35      36          0       8000         58
a      35      34          0       8000          7
a      35      39          0       8000         64
a      36      52          0         76         88
a      36      35          0       8000         33
a      36      40          0       8000         85
a      37      50          0        361         70
a      37      38          0       8000          3
a      37      41          0       8000         20
a      37      33          0       8000         45
a      38      56          0        398         64
a      38      39          0       8000         49
a      38      37          0       8000         43
a      38      42          0       8000         75
a      38      34          0       8000         45
a      39      61          0          4         82
a      39      40          0       8000         12
a      39      38          0       8000         89
a      39      43          0       8000         54
a      39      35          0       8000         28
a      40      59          0        216         25
a      40      39          0       8000         86
a      40      44          0       8000         11
a      40      36          0       8000         34
a      41      53          0        461         22
a      41      42          0       8000         33
a      41      45          0       8000         23
a      41      37          0       8000         64
a      42      49          0        400         82
a      42      43          0       8000         69
a      42      41          0       8000         22
a      42      46          0       8000         78
a      42      38          0       8000         65
a      43      54          0        445         38
a      43      44          0       8000         14
a      43      42          0       8000         78
a      43      47          0       8000         86
a      43      39          0       8000          6
a      44      62          0        276         10
a      44      43          0       8000         34
a      44      48          0       8000         44
a      44      40          0       8000         57
a      45      51          0        430         95
a      45      46          0       8000        100
a      45      41          0       8000         77
a      46      60          0        164         26
a      46      47          0       8000         72
a      46      45          0       8000         13
a      46      42          0       8000         23
a      47      63          0        390         58
a      47      48          0       8000         48
a      47      46          0       8000         87
a      47      43          0       8000         50
a      48      55          0        305         24
a      48      47          0       8000         90
a      48      44          0       8000         14
a      49      50          0       8000         25
a      49      53          0       8000         20
a      50      51          0       8000         18
a      50      49          0       8000         95
a      50      54          0       8000         98
a      51      52          0       8000         81
a      51      50          0       8000         80
a      51      55          0       8000         95
a      52      51          0       8000         73
a      52      56          0       8000         86
a      53      54          0       8000          2
a      53      57          0       8000         28
a      53      49          0       8000         76
a      54      55          0       8000         37
a      54      53          0       8000         86
a      54      58          0       8000         65
a      54      50          0       8000         89
a      55      56          0       8000         30
a      55      54          0       8000         37
a      55      59          0       8000         32
a      55      51          0       8000         98
a      56      55          0       8000         52
a      56      60          0       8000          3
a      56      52          0       8000         84
a      57      58          0       8000        100
a      57      61          0       8000          1
a      57      53          0       8000        100
a      58      59          0       8000          7
a      58      57          0       8000         88
a      58      62          0       8000         60
a      58      54          0       8000         61
a      59      60          0       8000         60
a      59      58          0       8000         61
a      59      63          0       8000         32
a      59      55          0       8000         34
a      60      59          0       8000         77
a      60      64          0       8000         18
a      60      56          0       8000         65
a      61      62          0       8000         56
a      61      57          0       8000         92
a      62      63          0       8000         55
a      62      61          0       8000         40
a      62      58          0       8000         57
a      63      64          0       8000         74
a      63      62          0       8000          4
a      63      59          0       8000         81
a      64      63          0       8000         40
a      64      60          0       8000         90
